Geographic Exponential Decay
80 285 302 96 196 142 40 35 315 273 305 136 177 0 59 251 272 138 25 290 75 275 245 200 214 205 76 45 143 192 28 207 133 186 178 10 14 66 18 189 252 82 307 188 210 248 246 297 156 157 128 256 162 6 47 277 126 215 43 99 217 23 52 69 300 83 250 31 114 257 131 261 284 212 182 86 181 274 239 309 317
p edge 320 324
e 0 17 72.0
e 0 149 53.0
e 0 294 51.0
e 1 273 91.0
e 1 0 22.0
e 2 198 1.0
e 2 1 1.0
e 3 84 1.0
e 3 2 3.0
e 4 125 5.0
e 4 3 5.0
e 5 53 2.0
e 5 4 6.0
e 6 262 78.0
e 6 128 61.0
e 6 10 19.0
e 6 5 38.0
e 7 292 2.0
e 7 6 78.0
e 8 132 4.0
e 8 7 2.0
e 9 21 3.0
e 9 8 2.0
e 10 314 62.0
e 10 312 43.0
e 11 45 13.0
e 11 9 2.0
e 12 214 73.0
e 12 11 2.0
e 13 307 68.0
e 13 12 1.0
e 14 206 79.0
e 14 308 87.0
e 14 285 81.0
e 14 13 68.0
e 15 99 39.0
e 16 237 3.0
e 16 14 47.0
e 18 252 40.0
e 18 19 41.0
e 18 151 35.0
e 18 16 5.0
e 20 76 2.0
e 22 83 7.0
e 22 18 11.0
e 23 115 53.0
e 23 116 34.0
e 23 197 75.0
e 23 22 83.0
e 24 156 66.0
e 24 23 19.0
e 25 266 93.0
e 25 278 75.0
e 25 253 21.0
e 25 24 77.0
e 26 29 5.0
e 26 25 20.0
e 27 248 5.0
e 28 228 98.0
e 28 93 95.0
e 28 123 48.0
e 28 26 75.0
e 30 98 1.0
e 30 28 14.0
e 31 241 3.0
e 31 225 91.0
e 31 32 95.0
e 31 30 69.0
e 33 295 23.0
e 33 31 15.0
e 34 146 1.0
e 34 33 2.0
e 35 96 62.0
e 35 36 7.0
e 35 147 8.0
e 35 34 42.0
e 37 38 3.0
e 37 35 39.0
e 39 191 9.0
e 39 37 5.0
e 40 54 4.0
e 40 41 58.0
e 40 104 24.0
e 40 39 62.0
e 42 309 93.0
e 42 40 69.0
e 43 289 9.0
e 43 67 24.0
e 43 134 2.0
e 43 42 25.0
e 44 45 76.0
e 45 255 68.0
e 46 47 96.0
e 46 43 35.0
e 47 109 76.0
e 47 182 74.0
e 48 194 2.0
e 48 46 2.0
e 49 161 11.0
e 49 48 3.0
e 50 207 26.0
e 50 49 1.0
e 51 55 1.0
e 51 50 6.0
e 52 56 40.0
e 52 57 99.0
e 52 169 99.0
e 52 51 4.0
e 58 311 1.0
e 58 52 47.0
e 59 287 97.0
e 59 82 78.0
e 59 127 80.0
e 60 171 6.0
e 60 58 1.0
e 61 62 1.0
e 61 60 5.0
e 63 296 7.0
e 63 61 12.0
e 64 89 4.0
e 64 63 4.0
e 65 315 6.0
e 65 64 1.0
e 66 95 80.0
e 66 307 74.0
e 66 76 38.0
e 68 92 9.0
e 68 65 1.0
e 69 213 2.0
e 69 136 24.0
e 69 121 96.0
e 69 68 44.0
e 70 110 1.0
e 70 69 52.0
e 71 72 1.0
e 71 70 2.0
e 73 257 25.0
e 73 71 1.0
e 74 113 2.0
e 74 73 4.0
e 75 129 39.0
e 75 222 27.0
e 75 76 83.0
e 77 199 9.0
e 77 74 3.0
e 78 170 1.0
e 78 77 4.0
e 79 200 2.0
e 79 78 2.0
e 80 122 1.0
e 80 79 1.0
e 81 85 4.0
e 81 80 1.0
e 82 83 68.0
e 82 86 26.0
e 83 86 92.0
e 86 142 86.0
e 87 272 94.0
e 88 90 5.0
e 88 81 5.0
e 91 211 2.0
e 91 88 4.0
e 94 215 7.0
e 96 148 68.0
e 96 102 14.0
e 97 99 88.0
e 99 274 64.0
e 100 107 1.0
e 100 91 1.0
e 101 223 2.0
e 101 100 1.0
e 103 105 3.0
e 103 101 3.0
e 106 315 26.0
e 108 143 48.0
e 111 130 2.0
e 111 103 1.0
e 112 114 7.0
e 114 117 97.0
e 114 212 2.0
e 118 119 1.0
e 118 111 1.0
e 120 315 32.0
e 124 126 76.0
e 124 118 2.0
e 126 172 51.0
e 126 167 76.0
e 128 318 50.0
e 128 263 31.0
e 131 173 11.0
e 131 133 40.0
e 131 196 62.0
e 133 135 80.0
e 133 200 36.0
e 136 174 82.0
e 136 150 47.0
e 137 275 54.0
e 138 139 35.0
e 138 141 35.0
e 138 143 62.0
e 140 142 84.0
e 142 143 41.0
e 144 279 8.0
e 144 124 10.0
e 145 268 5.0
e 145 144 17.0
e 152 153 7.0
e 152 145 8.0
e 154 155 1.0
e 154 152 18.0
e 156 157 90.0
e 156 265 56.0
e 157 158 40.0
e 157 259 34.0
e 159 160 4.0
e 159 154 1.0
e 162 163 55.0
e 162 179 22.0
e 162 164 67.0
e 162 159 11.0
e 165 166 2.0
e 165 162 87.0
e 168 175 2.0
e 168 165 2.0
e 176 177 42.0
e 177 178 61.0
e 177 310 24.0
e 178 180 85.0
e 178 181 30.0
e 181 182 5.0
e 181 280 22.0
e 182 183 8.0
e 184 185 7.0
e 184 168 5.0
e 186 187 90.0
e 186 188 84.0
e 186 189 40.0
e 186 184 80.0
e 188 281 16.0
e 188 189 47.0
e 189 190 13.0
e 192 193 82.0
e 192 195 28.0
e 192 196 27.0
e 196 200 92.0
e 201 202 2.0
e 201 186 22.0
e 203 204 4.0
e 203 201 4.0
e 205 231 43.0
e 205 249 91.0
e 205 275 55.0
e 207 208 43.0
e 207 209 42.0
e 210 212 66.0
e 210 297 56.0
e 210 276 83.0
e 212 214 83.0
e 214 215 6.0
e 215 216 19.0
e 217 218 38.0
e 217 224 23.0
e 217 219 39.0
e 217 203 4.0
e 220 221 31.0
e 220 226 23.0
e 220 217 77.0
e 227 229 2.0
e 227 220 11.0
e 230 232 4.0
e 230 227 2.0
e 233 234 9.0
e 233 230 9.0
e 235 274 62.0
e 236 293 1.0
e 236 233 7.0
e 238 239 77.0
e 238 236 5.0
e 239 240 74.0
e 239 242 87.0
e 243 244 3.0
e 243 238 4.0
e 245 246 1.0
e 245 316 80.0
e 245 247 64.0
e 246 248 9.0
e 246 301 14.0
e 248 250 11.0
e 250 251 11.0
e 250 252 47.0
e 251 252 63.0
e 251 254 27.0
e 256 286 68.0
e 256 257 36.0
e 256 275 56.0
e 257 258 11.0
e 260 261 56.0
e 260 243 3.0
e 261 264 96.0
e 261 267 33.0
e 269 270 1.0
e 269 260 4.0
e 271 272 36.0
e 272 273 92.0
e 273 274 41.0
e 277 282 13.0
e 277 283 9.0
e 277 300 62.0
e 284 285 56.0
e 284 288 57.0
e 284 290 53.0
e 285 290 30.0
e 290 291 33.0
e 297 298 40.0
e 297 299 6.0
e 300 302 94.0
e 300 303 83.0
e 302 304 51.0
e 302 305 7.0
e 305 306 28.0
e 305 307 45.0
e 309 313 66.0
e 309 317 97.0
e 317 319 44.0
